files/upTests/set-4nested/0001.eprime.solution
language ESSENCE' 1.0
$ minion Nodes: 5
$ minion TotalTime: 0.002219
$ Savile Row TotalTime: 0.472
letting s_Explicit_Explicit_Explicit_Occurrence be [[[[0, 1, 1], 
[0, 1, 1]], 
[[0, 1, 1], 
[0, 1, 1]]], 
[[[1, 1, 0], 
[1, 1, 0]], 
[[1, 1, 0], 
[1, 1, 0]]]]
